../PACE2025-instances/ds/exact/exact_001.gr
p ds 8340 16080
../PACE2025-instances/ds/exact/exact_002.gr
p ds 8340 16080
../PACE2025-instances/ds/exact/exact_003.gr
p ds 8340 16080
../PACE2025-instances/ds/exact/exact_004.gr
p ds 8340 16080
../PACE2025-instances/ds/exact/exact_005.gr
p ds 8340 16080
../PACE2025-instances/ds/exact/exact_006.gr
p ds 8340 16080
../PACE2025-instances/ds/exact/exact_007.gr
p ds 8340 16080
../PACE2025-instances/ds/exact/exact_008.gr
p ds 8340 16080
../PACE2025-instances/ds/exact/exact_009.gr
p ds 8340 16080
../PACE2025-instances/ds/exact/exact_010.gr
p ds 8340 16080
../PACE2025-instances/ds/exact/exact_011.gr
p ds 6255 12060
../PACE2025-instances/ds/exact/exact_012.gr
p ds 6255 12060
../PACE2025-instances/ds/exact/exact_013.gr
p ds 8340 16080
../PACE2025-instances/ds/exact/exact_014.gr
p ds 6255 12060
../PACE2025-instances/ds/exact/exact_015.gr
p ds 6255 12060
../PACE2025-instances/ds/exact/exact_016.gr
p ds 6255 12060
../PACE2025-instances/ds/exact/exact_017.gr
p ds 1518 2172
../PACE2025-instances/ds/exact/exact_018.gr
p ds 1716 2385
../PACE2025-instances/ds/exact/exact_019.gr
p ds 1885 2648
../PACE2025-instances/ds/exact/exact_020.gr
p ds 4312 5817
../PACE2025-instances/ds/exact/exact_021.gr
p ds 3910 5243
../PACE2025-instances/ds/exact/exact_022.gr
p ds 3053 4094
../PACE2025-instances/ds/exact/exact_023.gr
p ds 4464 6009
../PACE2025-instances/ds/exact/exact_024.gr
p ds 8340 16080
../PACE2025-instances/ds/exact/exact_025.gr
p ds 5837 7728
../PACE2025-instances/ds/exact/exact_026.gr
p ds 4396 5899
../PACE2025-instances/ds/exact/exact_027.gr
p ds 8526 11287
../PACE2025-instances/ds/exact/exact_028.gr
p ds 16035 20735
../PACE2025-instances/ds/exact/exact_029.gr
p ds 13508 17313
../PACE2025-instances/ds/exact/exact_030.gr
p ds 19295 25091
../PACE2025-instances/ds/exact/exact_031.gr
p ds 7241 9523
../PACE2025-instances/ds/exact/exact_032.gr
p ds 19555 25830
../PACE2025-instances/ds/exact/exact_033.gr
p ds 19462 28019
../PACE2025-instances/ds/exact/exact_034.gr
p ds 19555 26143
../PACE2025-instances/ds/exact/exact_035.gr
p ds 8340 16080
../PACE2025-instances/ds/exact/exact_036.gr
p ds 19638 25873
../PACE2025-instances/ds/exact/exact_037.gr
p ds 19925 26909
../PACE2025-instances/ds/exact/exact_038.gr
p ds 3570 44481
../PACE2025-instances/ds/exact/exact_039.gr
p ds 74491 728776
../PACE2025-instances/ds/exact/exact_040.gr
p ds 98361 4766139
../PACE2025-instances/ds/exact/exact_041.gr
p ds 4342 5682
../PACE2025-instances/ds/exact/exact_042.gr
p ds 13488 17535
../PACE2025-instances/ds/exact/exact_043.gr
p ds 4105 5515
../PACE2025-instances/ds/exact/exact_044.gr
p ds 16479 21315
../PACE2025-instances/ds/exact/exact_045.gr
p ds 8074 10594
../PACE2025-instances/ds/exact/exact_046.gr
p ds 8340 16080
../PACE2025-instances/ds/exact/exact_047.gr
p ds 8340 16080
../PACE2025-instances/ds/exact/exact_048.gr
p ds 8340 16080
../PACE2025-instances/ds/exact/exact_049.gr
p ds 8340 16080
../PACE2025-instances/ds/exact/exact_050.gr
p ds 8340 16080
